c This is a simple example file to demonstrate the DIMACS
c input file format for maximum flow problems. The solution
c vector is [5,10,5,0,5,5,10,5] with cost at 15.
c Problem line (nodes, links)
p sp 6 8
a 1 2 5
a 1 3 15
a 2 4 5
a 2 5 5
a 3 4 5
a 3 5 5
a 4 6 15
a 5 6 5